<?xml version = "1.0" encoding="UTF-8" standalone="yes"?>
<CPLEXSolution version="1.2">
 <header
   problemName="/home/piotrek/Kodzenie/SolversComparision/problems/afirocplex.lp"
   objectiveValue="-464.75314285714279"
   solutionTypeValue="1"
   solutionTypeString="basic"
   solutionStatusValue="1"
   solutionStatusString="optimal"
   solutionMethodString="dual"
   primalFeasible="1"
   dualFeasible="1"
   simplexIterations="5"
   writeLevel="1"/>
 <quality
   epRHS="9.9999999999999995e-07"
   epOpt="9.9999999999999995e-07"
   maxPrimalInfeas="0"
   maxDualInfeas="0"
   maxPrimalResidual="1.7763568394002505e-14"
   maxDualResidual="5.5511151231257827e-17"
   maxX="500"
   maxPi="0.94285714285714284"
   maxSlack="500"
   maxRedCost="10"
   kappa="14.955176924266539"/>
 <linearConstraints>
  <constraint name="R09" index="0" status="LL" slack="0" dual="-0.62857142857142856"/>
  <constraint name="R10" index="1" status="LL" slack="0" dual="0"/>
  <constraint name="X05" index="2" status="LL" slack="0" dual="-0.34477142857142856"/>
  <constraint name="X21" index="3" status="LL" slack="0" dual="-0.22857142857142859"/>
  <constraint name="R12" index="4" status="LL" slack="0" dual="-0"/>
  <constraint name="R13" index="5" status="LL" slack="0" dual="0"/>
  <constraint name="X17" index="6" status="BS" slack="61.785714285714285" dual="0"/>
  <constraint name="X18" index="7" status="BS" slack="0" dual="0"/>
  <constraint name="X19" index="8" status="BS" slack="0" dual="0"/>
  <constraint name="X20" index="9" status="BS" slack="0" dual="0"/>
  <constraint name="R19" index="10" status="LL" slack="0" dual="-0.94285714285714284"/>
  <constraint name="R20" index="11" status="LL" slack="0" dual="0"/>
  <constraint name="X27" index="12" status="LL" slack="0" dual="-0.87434285714285709"/>
  <constraint name="X44" index="13" status="LL" slack="0" dual="-0.34285714285714286"/>
  <constraint name="R22" index="14" status="LL" slack="0" dual="0"/>
  <constraint name="R23" index="15" status="LL" slack="0" dual="0"/>
  <constraint name="X40" index="16" status="BS" slack="500" dual="0"/>
  <constraint name="X41" index="17" status="BS" slack="0" dual="0"/>
  <constraint name="X42" index="18" status="BS" slack="0" dual="0"/>
  <constraint name="X43" index="19" status="BS" slack="0" dual="0"/>
  <constraint name="X45" index="20" status="LL" slack="0" dual="-0.94285714285714284"/>
  <constraint name="X46" index="21" status="LL" slack="0" dual="-0.62857142857142856"/>
  <constraint name="X47" index="22" status="LL" slack="0" dual="-0"/>
  <constraint name="X48" index="23" status="LL" slack="0" dual="-0.94285714285714284"/>
  <constraint name="X49" index="24" status="BS" slack="378.46035714285716" dual="0"/>
  <constraint name="X50" index="25" status="BS" slack="10.199999999999989" dual="0"/>
  <constraint name="X51" index="26" status="BS" slack="280.69285714285712" dual="0"/>
 </linearConstraints>
 <variables>
  <variable name="X02" index="0" status="BS" value="25.5" reducedCost="0"/>
  <variable name="X14" index="1" status="BS" value="18.214285714285715" reducedCost="0"/>
  <variable name="X23" index="2" status="BS" value="475.92000000000002" reducedCost="0"/>
  <variable name="X36" index="3" status="BS" value="339.94285714285718" reducedCost="0"/>
  <variable name="X39" index="4" status="LL" value="0" reducedCost="10"/>
  <variable name="X01" index="5" status="BS" value="80" reducedCost="0"/>
  <variable name="X03" index="6" status="BS" value="54.5" reducedCost="0"/>
  <variable name="X04" index="7" status="BS" value="84.800000000000011" reducedCost="0"/>
  <variable name="X06" index="8" status="BS" value="18.214285714285715" reducedCost="0"/>
  <variable name="X07" index="9" status="LL" value="0" reducedCost="0"/>
  <variable name="X08" index="10" status="LL" value="0" reducedCost="0"/>
  <variable name="X09" index="11" status="LL" value="0" reducedCost="0"/>
  <variable name="X15" index="12" status="BS" value="0" reducedCost="0"/>
  <variable name="X16" index="13" status="BS" value="19.30714285714286" reducedCost="0"/>
  <variable name="X10" index="14" status="LL" value="0" reducedCost="2.2289142857142856"/>
  <variable name="X11" index="15" status="LL" value="0" reducedCost="2.249657142857143"/>
  <variable name="X12" index="16" status="LL" value="0" reducedCost="2.2704"/>
  <variable name="X13" index="17" status="LL" value="0" reducedCost="2.2901999999999996"/>
  <variable name="X22" index="18" status="BS" value="500" reducedCost="0"/>
  <variable name="X24" index="19" status="BS" value="24.079999999999998" reducedCost="0"/>
  <variable name="X25" index="20" status="BS" value="0" reducedCost="0"/>
  <variable name="X26" index="21" status="BS" value="215" reducedCost="0"/>
  <variable name="X28" index="22" status="LL" value="0" reducedCost="0"/>
  <variable name="X29" index="23" status="LL" value="0" reducedCost="0"/>
  <variable name="X30" index="24" status="LL" value="0" reducedCost="0"/>
  <variable name="X31" index="25" status="LL" value="0" reducedCost="0"/>
  <variable name="X38" index="26" status="BS" value="0" reducedCost="0"/>
  <variable name="X37" index="27" status="BS" value="383.94285714285718" reducedCost="0"/>
  <variable name="X32" index="28" status="LL" value="0" reducedCost="2.0657999999999999"/>
  <variable name="X33" index="29" status="LL" value="0" reducedCost="2.0921999999999996"/>
  <variable name="X34" index="30" status="LL" value="0" reducedCost="2.1204857142857145"/>
  <variable name="X35" index="31" status="LL" value="0" reducedCost="2.1487714285714286"/>
 </variables>
</CPLEXSolution>
